NAME          ClpDefau
ROWS
 N  OBJROW
 L  R_160_0
 L  R_160_1
 L  R_160_2
 L  R_160_3
 L  R_160_4
 L  R_160_5
 L  R_160_6
 L  R_160_7
 L  R_160_8
 L  R_160_9
 L  R_160_10
 L  R_160_11
 L  R_160_12
 L  R_160_13
 L  R_160_14
 L  R_160_15
 L  R_160_16
 L  R_160_17
 L  R_160_18
 L  R_160_19
 L  R_160_20
 L  R_160_21
 L  R_160_22
 L  R_160_23
 L  R_160_24
 L  R_160_25
 L  R_160_26
 L  R_160_27
 L  R_160_28
 L  R_160_29
 L  R_160_30
 L  R_160_31
COLUMNS
    x_0       OBJROW     -1.           R_160_1   8.          
    x_0       R_160_2   1.             R_160_4   6.          
    x_0       R_160_6   9.             R_160_7   3.          
    x_0       R_160_8   1.             R_160_9   3.          
    x_0       R_160_10  9.             R_160_11  9.          
    x_0       R_160_12  3.             R_160_14  7.          
    x_0       R_160_15  6.             R_160_16  6.          
    x_0       R_160_17  8.             R_160_18  7.          
    x_0       R_160_19  8.             R_160_20  4.          
    x_0       R_160_21  8.             R_160_22  6.          
    x_0       R_160_23  8.             R_160_25  10.         
    x_0       R_160_26  9.             R_160_27  8.          
    x_0       R_160_28  6.          
    x_1       OBJROW     -2.           R_160_0   8.          
    x_1       R_160_1   9.             R_160_2   9.          
    x_1       R_160_3   10.            R_160_4   4.          
    x_1       R_160_5   6.             R_160_7   2.          
    x_1       R_160_8   6.             R_160_9   4.          
    x_1       R_160_11  10.            R_160_12  5.          
    x_1       R_160_13  2.             R_160_14  3.          
    x_1       R_160_16  4.             R_160_18  1.          
    x_1       R_160_19  6.             R_160_20  1.          
    x_1       R_160_21  2.             R_160_22  1.          
    x_1       R_160_23  3.             R_160_25  3.          
    x_1       R_160_26  1.             R_160_27  1.          
    x_1       R_160_28  4.             R_160_29  1.          
    x_1       R_160_30  10.            R_160_31  2.          
    x_2       OBJROW     -2.           R_160_0   8.          
    x_2       R_160_1   8.             R_160_2   10.         
    x_2       R_160_3   5.             R_160_4   10.         
    x_2       R_160_5   8.             R_160_7   6.          
    x_2       R_160_9   3.             R_160_10  7.          
    x_2       R_160_11  6.             R_160_12  6.          
    x_2       R_160_13  10.            R_160_15  9.          
    x_2       R_160_17  5.             R_160_18  3.          
    x_2       R_160_19  8.             R_160_20  9.          
    x_2       R_160_22  1.             R_160_24  8.          
    x_2       R_160_25  2.             R_160_26  10.         
    x_2       R_160_27  10.            R_160_28  5.          
    x_2       R_160_29  5.             R_160_30  1.          
    x_2       R_160_31  7.          
    x_3       OBJROW     -6.           R_160_0   2.          
    x_3       R_160_1   2.             R_160_2   2.          
    x_3       R_160_3   4.             R_160_4   1.          
    x_3       R_160_5   8.             R_160_6   9.          
    x_3       R_160_7   4.             R_160_8   4.          
    x_3       R_160_9   7.             R_160_10  1.          
    x_3       R_160_11  1.             R_160_14  2.          
    x_3       R_160_15  8.             R_160_16  9.          
    x_3       R_160_18  6.             R_160_19  6.          
    x_3       R_160_20  7.             R_160_21  5.          
    x_3       R_160_22  1.             R_160_24  8.          
    x_3       R_160_25  10.            R_160_26  1.          
    x_3       R_160_27  6.             R_160_28  2.          
    x_3       R_160_29  8.             R_160_30  10.         
    x_3       R_160_31  8.          
    x_4       OBJROW     -3.           R_160_0   6.          
    x_4       R_160_1   2.             R_160_2   2.          
    x_4       R_160_3   6.             R_160_4   4.          
    x_4       R_160_5   1.             R_160_6   8.          
    x_4       R_160_7   8.             R_160_8   8.          
    x_4       R_160_9   6.             R_160_10  9.          
    x_4       R_160_12  7.             R_160_15  4.          
    x_4       R_160_16  10.            R_160_17  7.          
    x_4       R_160_18  2.             R_160_19  10.         
    x_4       R_160_20  6.             R_160_21  9.          
    x_4       R_160_22  7.             R_160_24  1.          
    x_4       R_160_25  5.             R_160_26  6.          
    x_4       R_160_27  9.             R_160_28  3.          
    x_4       R_160_29  7.             R_160_30  9.          
    x_4       R_160_31  9.          
    x_5       OBJROW     -5.           R_160_0   3.          
    x_5       R_160_1   4.             R_160_2   6.          
    x_5       R_160_3   10.            R_160_4   8.          
    x_5       R_160_5   1.             R_160_7   3.          
    x_5       R_160_8   1.             R_160_9   7.          
    x_5       R_160_10  7.             R_160_11  8.          
    x_5       R_160_12  9.             R_160_13  2.          
    x_5       R_160_14  4.             R_160_15  4.          
    x_5       R_160_16  7.             R_160_18  1.          
    x_5       R_160_19  9.             R_160_20  8.          
    x_5       R_160_21  2.             R_160_22  4.          
    x_5       R_160_23  10.            R_160_24  4.          
    x_5       R_160_26  9.             R_160_27  4.          
    x_5       R_160_28  10.            R_160_29  8.          
    x_5       R_160_31  10.         
    x_6       OBJROW     -5.           R_160_0   8.          
    x_6       R_160_1   10.            R_160_2   4.          
    x_6       R_160_4   6.             R_160_5   8.          
    x_6       R_160_6   2.             R_160_7   8.          
    x_6       R_160_10  9.             R_160_11  2.          
    x_6       R_160_12  6.             R_160_13  7.          
    x_6       R_160_14  3.             R_160_15  8.          
    x_6       R_160_16  8.             R_160_17  3.          
    x_6       R_160_18  9.             R_160_19  1.          
    x_6       R_160_20  9.             R_160_22  4.          
    x_6       R_160_24  3.             R_160_25  9.          
    x_6       R_160_26  5.             R_160_27  6.          
    x_6       R_160_28  5.             R_160_29  7.          
    x_6       R_160_30  2.             R_160_31  4.          
    x_7       OBJROW     -10.          R_160_0   9.          
    x_7       R_160_2   9.             R_160_3   5.          
    x_7       R_160_4   8.             R_160_5   9.          
    x_7       R_160_6   2.             R_160_7   7.          
    x_7       R_160_9   6.             R_160_10  8.          
    x_7       R_160_11  8.             R_160_12  5.          
    x_7       R_160_13  3.             R_160_15  4.          
    x_7       R_160_17  2.             R_160_19  6.          
    x_7       R_160_20  3.             R_160_21  4.          
    x_7       R_160_22  9.             R_160_23  7.          
    x_7       R_160_25  5.             R_160_28  6.          
    x_7       R_160_29  5.             R_160_30  2.          
    x_7       R_160_31  7.          
    x_8       OBJROW     -4.           R_160_0   5.          
    x_8       R_160_2   8.             R_160_3   3.          
    x_8       R_160_4   7.             R_160_5   1.          
    x_8       R_160_6   3.             R_160_7   7.          
    x_8       R_160_8   6.             R_160_9   10.         
    x_8       R_160_10  5.             R_160_11  3.          
    x_8       R_160_12  4.             R_160_14  3.          
    x_8       R_160_15  6.             R_160_16  7.          
    x_8       R_160_17  2.             R_160_18  4.          
    x_8       R_160_19  10.            R_160_20  6.          
    x_8       R_160_21  10.            R_160_22  3.          
    x_8       R_160_23  2.             R_160_24  5.          
    x_8       R_160_25  9.             R_160_26  2.          
    x_8       R_160_27  10.            R_160_29  1.          
    x_8       R_160_30  8.             R_160_31  6.          
    x_9       OBJROW     -10.          R_160_0   10.         
    x_9       R_160_1   10.            R_160_2   8.          
    x_9       R_160_5   7.             R_160_6   8.          
    x_9       R_160_7   2.             R_160_8   10.         
    x_9       R_160_9   9.             R_160_11  5.          
    x_9       R_160_12  1.             R_160_13  6.          
    x_9       R_160_14  1.             R_160_15  2.          
    x_9       R_160_16  8.             R_160_17  8.          
    x_9       R_160_18  8.             R_160_19  1.          
    x_9       R_160_20  9.             R_160_21  1.          
    x_9       R_160_22  1.             R_160_24  9.          
    x_9       R_160_26  8.             R_160_27  9.          
    x_9       R_160_28  2.             R_160_29  1.          
    x_9       R_160_30  7.             R_160_31  7.          
    x_10      OBJROW     -1.           R_160_1   9.          
    x_10      R_160_2   3.             R_160_3   3.          
    x_10      R_160_4   4.             R_160_5   4.          
    x_10      R_160_6   7.             R_160_7   3.          
    x_10      R_160_8   5.             R_160_10  8.          
    x_10      R_160_11  9.             R_160_12  5.          
    x_10      R_160_13  3.             R_160_14  2.          
    x_10      R_160_15  9.             R_160_16  4.          
    x_10      R_160_17  10.            R_160_18  3.          
    x_10      R_160_19  5.             R_160_20  8.          
    x_10      R_160_21  4.             R_160_23  1.          
    x_10      R_160_24  2.             R_160_25  9.          
    x_10      R_160_27  2.             R_160_30  5.          
    x_11      OBJROW     -10.          R_160_0   6.          
    x_11      R_160_1   5.             R_160_3   2.          
    x_11      R_160_4   7.             R_160_5   1.          
    x_11      R_160_6   2.             R_160_7   5.          
    x_11      R_160_9   7.             R_160_10  9.          
    x_11      R_160_11  10.            R_160_12  4.          
    x_11      R_160_13  3.             R_160_14  8.          
    x_11      R_160_17  10.            R_160_18  4.          
    x_11      R_160_19  8.             R_160_20  8.          
    x_11      R_160_22  2.             R_160_23  10.         
    x_11      R_160_24  8.             R_160_25  10.         
    x_11      R_160_26  10.            R_160_28  5.          
    x_11      R_160_30  5.             R_160_31  1.          
    x_12      OBJROW     -3.           R_160_0   6.          
    x_12      R_160_1   9.             R_160_2   6.          
    x_12      R_160_4   8.             R_160_6   10.         
    x_12      R_160_7   4.             R_160_8   10.         
    x_12      R_160_9   2.             R_160_10  8.          
    x_12      R_160_12  8.             R_160_13  4.          
    x_12      R_160_14  5.             R_160_17  10.         
    x_12      R_160_18  6.             R_160_19  7.          
    x_12      R_160_20  4.             R_160_21  9.          
    x_12      R_160_22  4.             R_160_23  10.         
    x_12      R_160_24  7.             R_160_25  8.          
    x_12      R_160_26  8.             R_160_28  4.          
    x_12      R_160_29  9.             R_160_30  2.          
    x_12      R_160_31  9.          
    x_13      OBJROW     -7.           R_160_0   1.          
    x_13      R_160_1   7.             R_160_2   9.          
    x_13      R_160_3   6.             R_160_4   9.          
    x_13      R_160_6   2.             R_160_7   4.          
    x_13      R_160_8   1.             R_160_9   3.          
    x_13      R_160_10  4.             R_160_11  9.          
    x_13      R_160_12  3.             R_160_13  2.          
    x_13      R_160_14  9.             R_160_15  3.          
    x_13      R_160_16  3.             R_160_17  9.          
    x_13      R_160_18  8.             R_160_19  9.          
    x_13      R_160_20  6.             R_160_21  2.          
    x_13      R_160_22  2.             R_160_23  6.          
    x_13      R_160_24  5.             R_160_27  3.          
    x_13      R_160_28  6.             R_160_29  1.          
    x_13      R_160_30  9.             R_160_31  2.          
    x_14      OBJROW     -7.           R_160_0   9.          
    x_14      R_160_1   7.             R_160_2   4.          
    x_14      R_160_3   3.             R_160_4   1.          
    x_14      R_160_5   6.             R_160_6   5.          
    x_14      R_160_7   1.             R_160_9   4.          
    x_14      R_160_10  6.             R_160_11  10.         
    x_14      R_160_13  9.             R_160_14  1.          
    x_14      R_160_15  2.             R_160_16  5.          
    x_14      R_160_17  4.             R_160_18  9.          
    x_14      R_160_21  3.             R_160_22  3.          
    x_14      R_160_23  6.             R_160_24  10.         
    x_14      R_160_25  8.             R_160_27  8.          
    x_14      R_160_28  10.            R_160_31  5.          
    x_15      OBJROW     -9.           R_160_0   3.          
    x_15      R_160_1   10.            R_160_2   8.          
    x_15      R_160_3   4.             R_160_4   5.          
    x_15      R_160_5   6.             R_160_6   1.          
    x_15      R_160_8   1.             R_160_9   1.          
    x_15      R_160_11  10.            R_160_12  5.          
    x_15      R_160_13  8.             R_160_14  10.         
    x_15      R_160_15  4.             R_160_16  9.          
    x_15      R_160_17  5.             R_160_19  7.          
    x_15      R_160_20  4.             R_160_21  7.          
    x_15      R_160_22  10.            R_160_23  9.          
    x_15      R_160_24  7.             R_160_25  6.          
    x_15      R_160_27  3.             R_160_28  3.          
    x_15      R_160_29  8.             R_160_30  3.          
    x_15      R_160_31  6.          
RHS
    RHS       R_160_0   67.            R_160_1   54.         
    RHS       R_160_2   49.            R_160_3   56.         
    RHS       R_160_4   17.            R_160_5   67.         
    RHS       R_160_6   21.            R_160_7   42.         
    RHS       R_160_8   74.            R_160_9   28.         
    RHS       R_160_10  30.            R_160_11  17.         
    RHS       R_160_12  62.            R_160_13  57.         
    RHS       R_160_14  56.            R_160_15  67.         
    RHS       R_160_16  38.            R_160_17  57.         
    RHS       R_160_18  26.            R_160_19  83.         
    RHS       R_160_20  77.            R_160_21  67.         
    RHS       R_160_22  46.            R_160_23  72.         
    RHS       R_160_24  28.            R_160_25  18.         
    RHS       R_160_26  60.            R_160_27  19.         
    RHS       R_160_28  54.            R_160_29  79.         
    RHS       R_160_30  33.            R_160_31  22.         
BOUNDS
 UI BOUND     x_0       10.         
 UI BOUND     x_1       10.         
 UI BOUND     x_2       10.         
 UI BOUND     x_3       10.         
 UI BOUND     x_4       10.         
 UI BOUND     x_5       10.         
 UI BOUND     x_6       10.         
 UI BOUND     x_7       10.         
 UI BOUND     x_8       10.         
 UI BOUND     x_9       10.         
 UI BOUND     x_10      10.         
 UI BOUND     x_11      10.         
 UI BOUND     x_12      10.         
 UI BOUND     x_13      10.         
 UI BOUND     x_14      10.         
 UI BOUND     x_15      10.         
ENDATA
